c p0=0.08
p cnf 10 43
-10 5 -4 0
4 5 -8 0
9 -6 -10 0
8 6 -2 0
2 5 -9 0
-4 -7 6 0
5 6 -4 0
1 9 -4 0
-1 -3 5 0
-6 -2 7 0
2 7 6 0
-9 10 4 0
6 -3 9 0
1 4 8 0
1 -3 5 0
2 -8 10 0
10 4 -5 0
8 -3 -6 0
9 -3 1 0
4 -7 10 0
1 8 9 0
4 -8 -9 0
-1 -3 -7 0
3 -6 9 0
2 -5 -1 0
7 8 -9 0
10 2 -6 0
-8 6 5 0
-5 3 2 0
1 -2 -8 0
-1 -10 -2 0
9 7 -10 0
4 2 -9 0
3 -10 6 0
4 -7 3 0
-6 10 -4 0
-9 6 -3 0
6 2 -9 0
9 -10 5 0
1 -7 8 0
-3 -4 7 0
-5 -2 -9 0
-8 10 -5 0
